(declare-const day Int)
(declare-const date Int)
(declare-const month Int)
(declare-const year Int)
(declare-const next_day Int)
(declare-const next_date Int)
(declare-const next_month Int)
(declare-const next_year Int)
(assert (and (and (and (and (and (>= day 2) (<= day 8)) (>= date 1)) (<= date 31)) (>= month 1)) (<= month 12)))
(assert (not (= day 8)))
(assert (not (and (= month 12) (= date 31))))
(assert (not (and (= date 28) (= month 2))))
(assert (not (and (= date 31) (or (or (or (or (or (= month 1) (= month 3)) (= month 5)) (= month 7)) (= month 8)) (= month 10)))))
(assert (not (and (= date 29) (= month 2))))
(assert (not (and (= date 30) (or (or (or (= month 4) (= month 6)) (= month 9)) (= month 11)))))
(check-sat)
(model)
